
Gurobi 6.5.2 (mac64) logging started Wed Sep 21 18:44:40 2016


Gurobi 6.5.2 (mac64) logging started Wed Sep 21 18:47:55 2016


Gurobi 6.5.2 (mac64) logging started Wed Sep 21 18:50:36 2016


Gurobi 6.5.2 (mac64) logging started Wed Sep 21 18:55:11 2016


Gurobi 6.5.2 (mac64) logging started Wed Sep 21 18:58:50 2016


Gurobi 6.5.2 (mac64) logging started Wed Sep 21 22:35:48 2016


Gurobi 6.5.2 (mac64) logging started Fri Sep 23 14:22:43 2016


Gurobi 6.5.2 (mac64) logging started Fri Sep 23 14:26:11 2016

